%chk=H.chk
# hf/3-21g

H

0 2
 H                 0.000000000    0.000000000    0.00000000

--Link1--
%chk=H2.chk
# hf/3-21g

H2

0 1
 H                  0.65692535    0.57559374    0.45271096
 H                  0.05692535    0.57559374    0.45271096

--Link1--
%chk=H2+.chk
# hf/3-21g

H2+

1 2
 H                  0.00000000    0.00000000    0.00000000
 H                  0.70000000    0.00000000    0.00000000

--Link1--
%chk=H3+.chk
# hf/3-21g

H3+

1 1
 H                  -0.04922200    0.00000000    -0.08525500
 H                  -0.04922200    0.00000000     0.78525500
 H                   0.70466200    0.00000000     0.35000000

--Link1--
%chk=He.chk
# hf/3-21g

He

0 1
 He                0.00000000   0.000000000   0.00000000

